language Essence 1.3

letting quasigroup be
        [[0, 2, 1, 4, 3; int(0..4)],
         [3, 1, 4, 0, 2; int(0..4)],
         [4, 3, 2, 1, 0; int(0..4)],
         [2, 4, 0, 3, 1; int(0..4)],
         [1, 0, 3, 2, 4; int(0..4)]; int(0..4)]
